;; sequence(s): A62153
;; terms: 0 0 1 1 1 1 1 1 2 2 2 2 2 2 2 2 2 2 2 2
;; small program: loop(loop(x div (1 + 2), x, 1 + y) + x, x, 1) - 1
;; fast program: loop(((y + y) div loop2(x * y, y, x, 1, 1 + 2)) + x, (2 + x) div 2, 1) - 1
(set-logic UFNIA)
(define-fun divf ((a Int) (b Int)) Int (ite (< 0 b) (div a b) (div (- a) (- b))))
(declare-fun f1 (Int) Int)
(declare-fun g1 (Int) Int)
(declare-fun h1 (Int Int) Int)
(declare-fun u1 (Int Int) Int)
(declare-fun v1 (Int Int) Int)
(declare-fun f0 (Int Int) Int)
(declare-fun g0 (Int) Int)
(declare-fun h0 () Int)
(declare-fun u0 (Int Int) Int)
(declare-fun v0 (Int) Int)
(declare-fun small (Int) Int)
(declare-fun f3 (Int Int) Int)
(declare-fun g3 (Int Int) Int)
(declare-fun h3 (Int) Int)
(declare-fun i3 () Int)
(declare-fun j3 () Int)
(declare-fun u3 (Int Int Int) Int)
(declare-fun v3 (Int Int Int) Int)
(declare-fun w3 (Int) Int)
(declare-fun f2 (Int Int) Int)
(declare-fun g2 (Int) Int)
(declare-fun h2 () Int)
(declare-fun u2 (Int Int) Int)
(declare-fun v2 (Int) Int)
(declare-fun fast (Int) Int)
(assert (forall ((x Int)) (= (f1 x) (divf x (+ 1 2)))))
(assert (forall ((x Int)) (= (g1 x) x)))
(assert (forall ((x Int) (y Int)) (= (h1 x y) (+ 1 y))))
(assert (forall ((x Int) (y Int)) (= (u1 x y) (ite (<= x 0) y (f1 (u1 (- x 1) y))))))
(assert (forall ((x Int) (y Int)) (= (v1 x y) (u1 (g1 x) (h1 x y)))))
(assert (forall ((x Int) (y Int)) (= (f0 x y) (+ (v1 x y) x))))
(assert (forall ((x Int)) (= (g0 x) x)))
(assert (= h0 1))
(assert (forall ((x Int) (y Int)) (= (u0 x y) (ite (<= x 0) y (f0 (u0 (- x 1) y) x)))))
(assert (forall ((x Int)) (= (v0 x) (u0 (g0 x) h0))))
(assert (forall ((x Int)) (= (small x) (- (v0 x) 1))))
(assert (forall ((x Int) (y Int)) (= (f3 x y) (* x y))))
(assert (forall ((x Int) (y Int)) (= (g3 x y) y)))
(assert (forall ((x Int)) (= (h3 x) x)))
(assert (= i3 1))
(assert (= j3 (+ 1 2)))
(assert (forall ((x Int) (y Int) (z Int)) (= (u3 x y z) (ite (<= x 0) y (f3 (u3 (- x 1) y z) (v3 (- x 1) y z))))))
(assert (forall ((x Int) (y Int) (z Int)) (= (v3 x y z) (ite (<= x 0) z (g3 (u3 (- x 1) y z) (v3 (- x 1) y z))))))
(assert (forall ((x Int)) (= (w3 x) (u3 (h3 x) i3 j3))))
(assert (forall ((x Int) (y Int)) (= (f2 x y) (+ (divf (+ y y) (w3 x)) x))))
(assert (forall ((x Int)) (= (g2 x) (divf (+ 2 x) 2))))
(assert (= h2 1))
(assert (forall ((x Int) (y Int)) (= (u2 x y) (ite (<= x 0) y (f2 (u2 (- x 1) y) x)))))
(assert (forall ((x Int)) (= (v2 x) (u2 (g2 x) h2))))
(assert (forall ((x Int)) (= (fast x) (- (v2 x) 1))))
(assert (exists ((c Int)) (and (>= c 0) (not (= (small c) (fast c))))))
(check-sat)
